178000 
96434 43
42
53
51
64
72
65
67
68
69
47
48
44
45
46
24
25
21
22
23
1
2
3
4
5
20
19
31
30
26
27
43
28
29
32
39
38
10
9
6
7
8
74
75

81566 33
33
0
14
13
12
11
15
16
17
18
37
36
35
34
40
41
60
59
61
62
73
71
63
57
58
56
55
54
52
49
50
66
70

